SYSTEM =  - local optimisation
PREC = LOW
EDIFF = 3e-2
IBRION = 2
ISIF = 2
#ISPIN =2
NSW = 65
NELM =35
#ISYM= 0
SYMPREC=1e-3
ISMEAR = 1 ; SIGMA = 0.2
#LREAL= Auto
POTIM = 0.50
#Wavefunction and charge
LWAVE = FALSE
LCHARG = FALSE
ISTART = 0
#Target Pressure
PSTRESS = 169
#Crude optimisation
EDIFFG = -4e-2
NPAR = 3
